\ENCODING=ISO-8859-1
\Problem name: IloCplex

Maximize
 obj1: z#298
Subject To
 c1:   q_5#0 + q_6#1 <= 4.7090972465317
 c2:   q_6#1 + q_7#2 + q_9#3 <= 6.13760781485648
 c3:   q_5#0 + q_3#4 <= 4.73065265556408
 c4:   q_6#1 + q_8#5 <= 5.15348318366648
 c5:   x_06#6 + x_03#7 >= 1
 c6:   - 300 hap_1_00#8 + ap_00#9 <= 0
 c7:   x_06#6 + x_03#7 + 2 hap_1_00#8 <= 3
 c8:   - x_09#10 >= -1
 c9:   - 300 han_2_00#11 + an_00#12 <= 0
 c10:  - x_09#10 + 2 han_2_00#11 <= 1
 c11:  x_14#13 >= 1
 c12:  - 300 hap_1_01#14 + ap_01#15 <= 0
 c13:  x_14#13 + 2 hap_1_01#14 <= 3
 c14:  - x_10#16 >= -1
 c15:  - 300 han_2_01#17 + an_01#18 <= 0
 c16:  - x_10#16 + 2 han_2_01#17 <= 1
 c17:  x_06#19 + x_03#20 >= 1
 c18:  - 300 hap_1_10#21 + ap_10#22 <= 0
 c19:  x_06#19 + x_03#20 + 2 hap_1_10#21 <= 3
 c20:  - x_09#23 >= -1
 c21:  - 300 han_2_10#24 + an_10#25 <= 0
 c22:  - x_09#23 + 2 han_2_10#24 <= 1
 c23:  x_14#26 >= 1
 c24:  - 300 hap_1_11#27 + ap_11#28 <= 0
 c25:  x_14#26 + 2 hap_1_11#27 <= 3
 c26:  - x_10#29 >= -1
 c27:  - 300 han_2_11#30 + an_11#31 <= 0
 c28:  - x_10#29 + 2 han_2_11#30 <= 1
 c29:  x_06#32 + x_03#33 >= 1
 c30:  - 300 hap_1_20#34 + ap_20#35 <= 0
 c31:  x_06#32 + x_03#33 + 2 hap_1_20#34 <= 3
 c32:  - x_09#36 >= -1
 c33:  - 300 han_2_20#37 + an_20#38 <= 0
 c34:  - x_09#36 + 2 han_2_20#37 <= 1
 c35:  x_14#39 >= 1
 c36:  - 300 hap_1_21#40 + ap_21#41 <= 0
 c37:  x_14#39 + 2 hap_1_21#40 <= 3
 c38:  - x_10#42 >= -1
 c39:  - 300 han_2_21#43 + an_21#44 <= 0
 c40:  - x_10#42 + 2 han_2_21#43 <= 1
 c41:  x_06#45 + x_03#46 >= 1
 c42:  - 300 hap_1_30#47 + ap_30#48 <= 0
 c43:  x_06#45 + x_03#46 + 2 hap_1_30#47 <= 3
 c44:  - x_09#49 >= -1
 c45:  - 300 han_2_30#50 + an_30#51 <= 0
 c46:  - x_09#49 + 2 han_2_30#50 <= 1
 c47:  x_14#52 >= 1
 c48:  - 300 hap_1_31#53 + ap_31#54 <= 0
 c49:  x_14#52 + 2 hap_1_31#53 <= 3
 c50:  - x_10#55 >= -1
 c51:  - 300 han_2_31#56 + an_31#57 <= 0
 c52:  - x_10#55 + 2 han_2_31#56 <= 1
 c53:  - x_00#58 >= 0
 c54:  - 300 hb_001#59 + b_001#60 <= 0
 c55:  - x_00#58 + 2 hb_001#59 <= 2
 c56:  x_04#61 >= 0
 c57:  - 300 hb_004#62 + b_004#63 <= 0
 c58:  x_04#61 + 2 hb_004#62 <= 2
 c59:  x_07#64 - x_01#65 >= 0
 c60:  - 300 hb_005#66 + b_005#67 <= 0
 c61:  x_07#64 - x_01#65 + 2 hb_005#66 <= 2
 c62:  x_09#10 - x_02#68 >= 0
 c63:  - 300 hb_006#69 + b_006#70 <= 0
 c64:  x_09#10 - x_02#68 + 2 hb_006#69 <= 2
 c65:  - x_03#7 - x_04#61 + x_01#65 + x_02#68 + x_08#71 - x_05#72 >= 0
 c66:  - 300 hb_007#73 + b_007#74 <= 0
 c67:  - x_03#7 - x_04#61 + x_01#65 + x_02#68 + x_08#71 - x_05#72 + 2 hb_007#73
       <= 2
 c68:  - x_06#6 - x_07#64 - x_08#71 + x_05#72 >= 0
 c69:  - 300 hb_008#75 + b_008#76 <= 0
 c70:  - x_06#6 - x_07#64 - x_08#71 + x_05#72 + 2 hb_008#75 <= 2
 c71:  x_16#77 + x_13#78 >= 0
 c72:  - 300 hb_013#79 + b_013#80 <= 0
 c73:  x_16#77 + x_13#78 + 2 hb_013#79 <= 2
 c74:  x_17#81 - x_11#82 >= 0
 c75:  - 300 hb_015#83 + b_015#84 <= 0
 c76:  x_17#81 - x_11#82 + 2 hb_015#83 <= 2
 c77:  x_19#85 - x_12#86 >= 0
 c78:  - 300 hb_016#87 + b_016#88 <= 0
 c79:  x_19#85 - x_12#86 + 2 hb_016#87 <= 2
 c80:  - x_14#13 - x_13#78 + x_11#82 + x_12#86 + x_18#89 - x_15#90 >= 0
 c81:  - 300 hb_017#91 + b_017#92 <= 0
 c82:  - x_14#13 - x_13#78 + x_11#82 + x_12#86 + x_18#89 - x_15#90
       + 2 hb_017#91 <= 2
 c83:  - x_16#77 - x_17#81 - x_18#89 + x_15#90 >= 0
 c84:  - 300 hb_018#93 + b_018#94 <= 0
 c85:  - x_16#77 - x_17#81 - x_18#89 + x_15#90 + 2 hb_018#93 <= 2
 c86:  x_10#16 - x_19#85 >= 0
 c87:  - 300 hb_019#95 + b_019#96 <= 0
 c88:  x_10#16 - x_19#85 + 2 hb_019#95 <= 2
 c89:  - x_00#97 >= 0
 c90:  - 300 hb_101#98 + b_101#99 <= 0
 c91:  - x_00#97 + 2 hb_101#98 <= 2
 c92:  x_04#100 >= 0
 c93:  - 300 hb_104#101 + b_104#102 <= 0
 c94:  x_04#100 + 2 hb_104#101 <= 2
 c95:  x_07#103 - x_01#104 >= 0
 c96:  - 300 hb_105#105 + b_105#106 <= 0
 c97:  x_07#103 - x_01#104 + 2 hb_105#105 <= 2
 c98:  x_09#23 - x_02#107 >= 0
 c99:  - 300 hb_106#108 + b_106#109 <= 0
 c100: x_09#23 - x_02#107 + 2 hb_106#108 <= 2
 c101: - x_03#20 - x_04#100 + x_01#104 + x_02#107 + x_08#110 - x_05#111 >= 0
 c102: - 300 hb_107#112 + b_107#113 <= 0
 c103: - x_03#20 - x_04#100 + x_01#104 + x_02#107 + x_08#110 - x_05#111
       + 2 hb_107#112 <= 2
 c104: - x_06#19 - x_07#103 - x_08#110 + x_05#111 >= 0
 c105: - 300 hb_108#114 + b_108#115 <= 0
 c106: - x_06#19 - x_07#103 - x_08#110 + x_05#111 + 2 hb_108#114 <= 2
 c107: x_16#116 + x_13#117 >= 0
 c108: - 300 hb_113#118 + b_113#119 <= 0
 c109: x_16#116 + x_13#117 + 2 hb_113#118 <= 2
 c110: x_17#120 - x_11#121 >= 0
 c111: - 300 hb_115#122 + b_115#123 <= 0
 c112: x_17#120 - x_11#121 + 2 hb_115#122 <= 2
 c113: x_19#124 - x_12#125 >= 0
 c114: - 300 hb_116#126 + b_116#127 <= 0
 c115: x_19#124 - x_12#125 + 2 hb_116#126 <= 2
 c116: - x_14#26 - x_13#117 + x_11#121 + x_12#125 + x_18#128 - x_15#129 >= 0
 c117: - 300 hb_117#130 + b_117#131 <= 0
 c118: - x_14#26 - x_13#117 + x_11#121 + x_12#125 + x_18#128 - x_15#129
       + 2 hb_117#130 <= 2
 c119: - x_16#116 - x_17#120 - x_18#128 + x_15#129 >= 0
 c120: - 300 hb_118#132 + b_118#133 <= 0
 c121: - x_16#116 - x_17#120 - x_18#128 + x_15#129 + 2 hb_118#132 <= 2
 c122: x_10#29 - x_19#124 >= 0
 c123: - 300 hb_119#134 + b_119#135 <= 0
 c124: x_10#29 - x_19#124 + 2 hb_119#134 <= 2
 c125: - x_00#136 >= 0
 c126: - 300 hb_201#137 + b_201#138 <= 0
 c127: - x_00#136 + 2 hb_201#137 <= 2
 c128: x_04#139 >= 0
 c129: - 300 hb_204#140 + b_204#141 <= 0
 c130: x_04#139 + 2 hb_204#140 <= 2
 c131: x_07#142 - x_01#143 >= 0
 c132: - 300 hb_205#144 + b_205#145 <= 0
 c133: x_07#142 - x_01#143 + 2 hb_205#144 <= 2
 c134: x_09#36 - x_02#146 >= 0
 c135: - 300 hb_206#147 + b_206#148 <= 0
 c136: x_09#36 - x_02#146 + 2 hb_206#147 <= 2
 c137: - x_03#33 - x_04#139 + x_01#143 + x_02#146 + x_08#149 - x_05#150 >= 0
 c138: - 300 hb_207#151 + b_207#152 <= 0
 c139: - x_03#33 - x_04#139 + x_01#143 + x_02#146 + x_08#149 - x_05#150
       + 2 hb_207#151 <= 2
 c140: - x_06#32 - x_07#142 - x_08#149 + x_05#150 >= 0
 c141: - 300 hb_208#153 + b_208#154 <= 0
 c142: - x_06#32 - x_07#142 - x_08#149 + x_05#150 + 2 hb_208#153 <= 2
 c143: x_16#155 + x_13#156 >= 0
 c144: - 300 hb_213#157 + b_213#158 <= 0
 c145: x_16#155 + x_13#156 + 2 hb_213#157 <= 2
 c146: x_17#159 - x_11#160 >= 0
 c147: - 300 hb_215#161 + b_215#162 <= 0
 c148: x_17#159 - x_11#160 + 2 hb_215#161 <= 2
 c149: x_19#163 - x_12#164 >= 0
 c150: - 300 hb_216#165 + b_216#166 <= 0
 c151: x_19#163 - x_12#164 + 2 hb_216#165 <= 2
 c152: - x_14#39 - x_13#156 + x_11#160 + x_12#164 + x_18#167 - x_15#168 >= 0
 c153: - 300 hb_217#169 + b_217#170 <= 0
 c154: - x_14#39 - x_13#156 + x_11#160 + x_12#164 + x_18#167 - x_15#168
       + 2 hb_217#169 <= 2
 c155: - x_16#155 - x_17#159 - x_18#167 + x_15#168 >= 0
 c156: - 300 hb_218#171 + b_218#172 <= 0
 c157: - x_16#155 - x_17#159 - x_18#167 + x_15#168 + 2 hb_218#171 <= 2
 c158: x_10#42 - x_19#163 >= 0
 c159: - 300 hb_219#173 + b_219#174 <= 0
 c160: x_10#42 - x_19#163 + 2 hb_219#173 <= 2
 c161: - x_00#175 >= 0
 c162: - 300 hb_301#176 + b_301#177 <= 0
 c163: - x_00#175 + 2 hb_301#176 <= 2
 c164: x_04#178 >= 0
 c165: - 300 hb_304#179 + b_304#180 <= 0
 c166: x_04#178 + 2 hb_304#179 <= 2
 c167: x_07#181 - x_01#182 >= 0
 c168: - 300 hb_305#183 + b_305#184 <= 0
 c169: x_07#181 - x_01#182 + 2 hb_305#183 <= 2
 c170: x_09#49 - x_02#185 >= 0
 c171: - 300 hb_306#186 + b_306#187 <= 0
 c172: x_09#49 - x_02#185 + 2 hb_306#186 <= 2
 c173: - x_03#46 - x_04#178 + x_01#182 + x_02#185 + x_08#188 - x_05#189 >= 0
 c174: - 300 hb_307#190 + b_307#191 <= 0
 c175: - x_03#46 - x_04#178 + x_01#182 + x_02#185 + x_08#188 - x_05#189
       + 2 hb_307#190 <= 2
 c176: - x_06#45 - x_07#181 - x_08#188 + x_05#189 >= 0
 c177: - 300 hb_308#192 + b_308#193 <= 0
 c178: - x_06#45 - x_07#181 - x_08#188 + x_05#189 + 2 hb_308#192 <= 2
 c179: x_16#194 + x_13#195 >= 0
 c180: - 300 hb_313#196 + b_313#197 <= 0
 c181: x_16#194 + x_13#195 + 2 hb_313#196 <= 2
 c182: x_17#198 - x_11#199 >= 0
 c183: - 300 hb_315#200 + b_315#201 <= 0
 c184: x_17#198 - x_11#199 + 2 hb_315#200 <= 2
 c185: x_19#202 - x_12#203 >= 0
 c186: - 300 hb_316#204 + b_316#205 <= 0
 c187: x_19#202 - x_12#203 + 2 hb_316#204 <= 2
 c188: - x_14#52 - x_13#195 + x_11#199 + x_12#203 + x_18#206 - x_15#207 >= 0
 c189: - 300 hb_317#208 + b_317#209 <= 0
 c190: - x_14#52 - x_13#195 + x_11#199 + x_12#203 + x_18#206 - x_15#207
       + 2 hb_317#208 <= 2
 c191: - x_16#194 - x_17#198 - x_18#206 + x_15#207 >= 0
 c192: - 300 hb_318#210 + b_318#211 <= 0
 c193: - x_16#194 - x_17#198 - x_18#206 + x_15#207 + 2 hb_318#210 <= 2
 c194: x_10#55 - x_19#202 >= 0
 c195: - 300 hb_319#212 + b_319#213 <= 0
 c196: x_10#55 - x_19#202 + 2 hb_319#212 <= 2
 c197: - b_001#60 - q_0#214 <= 0
 c198: x_00#58 - 2 hdu_000#215 <= 0
 c199: b_001#60 + q_0#214 + 300 hdu_000#215 <= 300
 c200: - b_005#67 + b_007#74 - q_1#216 <= 0
 c201: x_01#65 - 2 hdu_001#217 <= 0
 c202: b_005#67 - b_007#74 + q_1#216 + 300 hdu_001#217 <= 300
 c203: - b_006#70 + b_007#74 - q_2#218 <= 0
 c204: x_02#68 - 2 hdu_002#219 <= 0
 c205: b_006#70 - b_007#74 + q_2#218 + 300 hdu_002#219 <= 300
 c206: - q_3#4 + ap_00#9 - b_007#74 <= 0
 c207: x_03#7 - 2 hdu_003#220 <= 0
 c208: q_3#4 - ap_00#9 + b_007#74 + 300 hdu_003#220 <= 300
 c209: b_004#63 - b_007#74 - q_4#221 <= 0
 c210: x_04#61 - 2 hdu_004#222 <= 0
 c211: - b_004#63 + b_007#74 + q_4#221 + 300 hdu_004#222 <= 300
 c212: - q_5#0 - b_007#74 + b_008#76 <= 0
 c213: x_05#72 - 2 hdu_005#223 <= 0
 c214: q_5#0 + b_007#74 - b_008#76 + 300 hdu_005#223 <= 300
 c215: - q_6#1 + ap_00#9 - b_008#76 <= 0.325000000000023
 c216: x_06#6 - 2 hdu_006#224 <= 0
 c217: q_6#1 - ap_00#9 + b_008#76 + 300 hdu_006#224 <= 299.675
 c218: - q_7#2 + b_005#67 - b_008#76 <= 0.425000000000068
 c219: x_07#64 - 2 hdu_007#225 <= 0
 c220: q_7#2 - b_005#67 + b_008#76 + 300 hdu_007#225 <= 299.575
 c221: - q_8#5 + b_007#74 - b_008#76 <= 0.500000000000068
 c222: x_08#71 - 2 hdu_008#226 <= 0
 c223: q_8#5 - b_007#74 + b_008#76 + 300 hdu_008#226 <= 299.5
 c224: - q_9#3 - an_00#12 + b_006#70 <= 0.375
 c225: x_09#10 - 2 hdu_009#227 <= 0
 c226: q_9#3 + an_00#12 - b_006#70 + 300 hdu_009#227 <= 299.625
 c227: - an_01#18 + b_019#96 - q_0#214 <= 0
 c228: x_10#16 - 2 hdu_010#228 <= 0
 c229: an_01#18 - b_019#96 + q_0#214 + 300 hdu_010#228 <= 300
 c230: - b_015#84 + b_017#92 - q_1#216 <= 0
 c231: x_11#82 - 2 hdu_011#229 <= 0
 c232: b_015#84 - b_017#92 + q_1#216 + 300 hdu_011#229 <= 300
 c233: - b_016#88 + b_017#92 - q_2#218 <= 0
 c234: x_12#86 - 2 hdu_012#230 <= 0
 c235: b_016#88 - b_017#92 + q_2#218 + 300 hdu_012#230 <= 300
 c236: - q_3#4 + b_013#80 - b_017#92 <= 0
 c237: x_13#78 - 2 hdu_013#231 <= 0
 c238: q_3#4 - b_013#80 + b_017#92 + 300 hdu_013#231 <= 300
 c239: ap_01#15 - b_017#92 - q_4#221 <= 0
 c240: x_14#13 - 2 hdu_014#232 <= 0
 c241: - ap_01#15 + b_017#92 + q_4#221 + 300 hdu_014#232 <= 300
 c242: - q_5#0 - b_017#92 + b_018#94 <= 0
 c243: x_15#90 - 2 hdu_015#233 <= 0
 c244: q_5#0 + b_017#92 - b_018#94 + 300 hdu_015#233 <= 300
 c245: - q_6#1 + b_013#80 - b_018#94 <= 0
 c246: x_16#77 - 2 hdu_016#234 <= 0
 c247: q_6#1 - b_013#80 + b_018#94 + 300 hdu_016#234 <= 300
 c248: - q_7#2 + b_015#84 - b_018#94 <= 0.425000000000011
 c249: x_17#81 - 2 hdu_017#235 <= 0
 c250: q_7#2 - b_015#84 + b_018#94 + 300 hdu_017#235 <= 299.575
 c251: - q_8#5 + b_017#92 - b_018#94 <= 0.5
 c252: x_18#89 - 2 hdu_018#236 <= 0
 c253: q_8#5 - b_017#92 + b_018#94 + 300 hdu_018#236 <= 299.5
 c254: - q_9#3 + b_016#88 - b_019#96 <= 2
 c255: x_19#85 - 2 hdu_019#237 <= 0
 c256: q_9#3 - b_016#88 + b_019#96 + 300 hdu_019#237 <= 298
 c257: - b_101#99 - q_0#214 <= 0
 c258: x_00#97 - 2 hdu_100#238 <= 0
 c259: b_101#99 + q_0#214 + 300 hdu_100#238 <= 300
 c260: - b_105#106 + b_107#113 - q_1#216 <= 0
 c261: x_01#104 - 2 hdu_101#239 <= 0
 c262: b_105#106 - b_107#113 + q_1#216 + 300 hdu_101#239 <= 300
 c263: - b_106#109 + b_107#113 - q_2#218 <= 0
 c264: x_02#107 - 2 hdu_102#240 <= 0
 c265: b_106#109 - b_107#113 + q_2#218 + 300 hdu_102#240 <= 300
 c266: - q_3#4 + ap_10#22 - b_107#113 <= 0
 c267: x_03#20 - 2 hdu_103#241 <= 0
 c268: q_3#4 - ap_10#22 + b_107#113 + 300 hdu_103#241 <= 300
 c269: b_104#102 - b_107#113 - q_4#221 <= 0
 c270: x_04#100 - 2 hdu_104#242 <= 0
 c271: - b_104#102 + b_107#113 + q_4#221 + 300 hdu_104#242 <= 300
 c272: - q_5#0 - b_107#113 + b_108#115 <= 0
 c273: x_05#111 - 2 hdu_105#243 <= 0
 c274: q_5#0 + b_107#113 - b_108#115 + 300 hdu_105#243 <= 300
 c275: - q_6#1 + ap_10#22 - b_108#115 <= 0.325000000000023
 c276: x_06#19 - 2 hdu_106#244 <= 0
 c277: q_6#1 - ap_10#22 + b_108#115 + 300 hdu_106#244 <= 299.675
 c278: - q_7#2 + b_105#106 - b_108#115 <= 0.425000000000068
 c279: x_07#103 - 2 hdu_107#245 <= 0
 c280: q_7#2 - b_105#106 + b_108#115 + 300 hdu_107#245 <= 299.575
 c281: - q_8#5 + b_107#113 - b_108#115 <= 0.500000000000068
 c282: x_08#110 - 2 hdu_108#246 <= 0
 c283: q_8#5 - b_107#113 + b_108#115 + 300 hdu_108#246 <= 299.5
 c284: - q_9#3 - an_10#25 + b_106#109 <= 0.375
 c285: x_09#23 - 2 hdu_109#247 <= 0
 c286: q_9#3 + an_10#25 - b_106#109 + 300 hdu_109#247 <= 299.625
 c287: - an_11#31 + b_119#135 - q_0#214 <= 0
 c288: x_10#29 - 2 hdu_110#248 <= 0
 c289: an_11#31 - b_119#135 + q_0#214 + 300 hdu_110#248 <= 300
 c290: - b_115#123 + b_117#131 - q_1#216 <= 0
 c291: x_11#121 - 2 hdu_111#249 <= 0
 c292: b_115#123 - b_117#131 + q_1#216 + 300 hdu_111#249 <= 300
 c293: - b_116#127 + b_117#131 - q_2#218 <= 0
 c294: x_12#125 - 2 hdu_112#250 <= 0
 c295: b_116#127 - b_117#131 + q_2#218 + 300 hdu_112#250 <= 300
 c296: - q_3#4 + b_113#119 - b_117#131 <= 0
 c297: x_13#117 - 2 hdu_113#251 <= 0
 c298: q_3#4 - b_113#119 + b_117#131 + 300 hdu_113#251 <= 300
 c299: ap_11#28 - b_117#131 - q_4#221 <= 0
 c300: x_14#26 - 2 hdu_114#252 <= 0
 c301: - ap_11#28 + b_117#131 + q_4#221 + 300 hdu_114#252 <= 300
 c302: - q_5#0 - b_117#131 + b_118#133 <= 0
 c303: x_15#129 - 2 hdu_115#253 <= 0
 c304: q_5#0 + b_117#131 - b_118#133 + 300 hdu_115#253 <= 300
 c305: - q_6#1 + b_113#119 - b_118#133 <= 0
 c306: x_16#116 - 2 hdu_116#254 <= 0
 c307: q_6#1 - b_113#119 + b_118#133 + 300 hdu_116#254 <= 300
 c308: - q_7#2 + b_115#123 - b_118#133 <= 0.425000000000011
 c309: x_17#120 - 2 hdu_117#255 <= 0
 c310: q_7#2 - b_115#123 + b_118#133 + 300 hdu_117#255 <= 299.575
 c311: - q_8#5 + b_117#131 - b_118#133 <= 0.5
 c312: x_18#128 - 2 hdu_118#256 <= 0
 c313: q_8#5 - b_117#131 + b_118#133 + 300 hdu_118#256 <= 299.5
 c314: - q_9#3 + b_116#127 - b_119#135 <= 2
 c315: x_19#124 - 2 hdu_119#257 <= 0
 c316: q_9#3 - b_116#127 + b_119#135 + 300 hdu_119#257 <= 298
 c317: - b_201#138 - q_0#214 <= 0
 c318: x_00#136 - 2 hdu_200#258 <= 0
 c319: b_201#138 + q_0#214 + 300 hdu_200#258 <= 300
 c320: - b_205#145 + b_207#152 - q_1#216 <= 0
 c321: x_01#143 - 2 hdu_201#259 <= 0
 c322: b_205#145 - b_207#152 + q_1#216 + 300 hdu_201#259 <= 300
 c323: - b_206#148 + b_207#152 - q_2#218 <= 0
 c324: x_02#146 - 2 hdu_202#260 <= 0
 c325: b_206#148 - b_207#152 + q_2#218 + 300 hdu_202#260 <= 300
 c326: - q_3#4 + ap_20#35 - b_207#152 <= 0
 c327: x_03#33 - 2 hdu_203#261 <= 0
 c328: q_3#4 - ap_20#35 + b_207#152 + 300 hdu_203#261 <= 300
 c329: b_204#141 - b_207#152 - q_4#221 <= 0
 c330: x_04#139 - 2 hdu_204#262 <= 0
 c331: - b_204#141 + b_207#152 + q_4#221 + 300 hdu_204#262 <= 300
 c332: - q_5#0 - b_207#152 + b_208#154 <= 0
 c333: x_05#150 - 2 hdu_205#263 <= 0
 c334: q_5#0 + b_207#152 - b_208#154 + 300 hdu_205#263 <= 300
 c335: - q_6#1 + ap_20#35 - b_208#154 <= 0.325000000000023
 c336: x_06#32 - 2 hdu_206#264 <= 0
 c337: q_6#1 - ap_20#35 + b_208#154 + 300 hdu_206#264 <= 299.675
 c338: - q_7#2 + b_205#145 - b_208#154 <= 0.425000000000068
 c339: x_07#142 - 2 hdu_207#265 <= 0
 c340: q_7#2 - b_205#145 + b_208#154 + 300 hdu_207#265 <= 299.575
 c341: - q_8#5 + b_207#152 - b_208#154 <= 0.500000000000068
 c342: x_08#149 - 2 hdu_208#266 <= 0
 c343: q_8#5 - b_207#152 + b_208#154 + 300 hdu_208#266 <= 299.5
 c344: - q_9#3 - an_20#38 + b_206#148 <= 0.375
 c345: x_09#36 - 2 hdu_209#267 <= 0
 c346: q_9#3 + an_20#38 - b_206#148 + 300 hdu_209#267 <= 299.625
 c347: - an_21#44 + b_219#174 - q_0#214 <= 0
 c348: x_10#42 - 2 hdu_210#268 <= 0
 c349: an_21#44 - b_219#174 + q_0#214 + 300 hdu_210#268 <= 300
 c350: - b_215#162 + b_217#170 - q_1#216 <= 0
 c351: x_11#160 - 2 hdu_211#269 <= 0
 c352: b_215#162 - b_217#170 + q_1#216 + 300 hdu_211#269 <= 300
 c353: - b_216#166 + b_217#170 - q_2#218 <= 0
 c354: x_12#164 - 2 hdu_212#270 <= 0
 c355: b_216#166 - b_217#170 + q_2#218 + 300 hdu_212#270 <= 300
 c356: - q_3#4 + b_213#158 - b_217#170 <= 0
 c357: x_13#156 - 2 hdu_213#271 <= 0
 c358: q_3#4 - b_213#158 + b_217#170 + 300 hdu_213#271 <= 300
 c359: ap_21#41 - b_217#170 - q_4#221 <= 0
 c360: x_14#39 - 2 hdu_214#272 <= 0
 c361: - ap_21#41 + b_217#170 + q_4#221 + 300 hdu_214#272 <= 300
 c362: - q_5#0 - b_217#170 + b_218#172 <= 0
 c363: x_15#168 - 2 hdu_215#273 <= 0
 c364: q_5#0 + b_217#170 - b_218#172 + 300 hdu_215#273 <= 300
 c365: - q_6#1 + b_213#158 - b_218#172 <= 0
 c366: x_16#155 - 2 hdu_216#274 <= 0
 c367: q_6#1 - b_213#158 + b_218#172 + 300 hdu_216#274 <= 300
 c368: - q_7#2 + b_215#162 - b_218#172 <= 0.425000000000011
 c369: x_17#159 - 2 hdu_217#275 <= 0
 c370: q_7#2 - b_215#162 + b_218#172 + 300 hdu_217#275 <= 299.575
 c371: - q_8#5 + b_217#170 - b_218#172 <= 0.5
 c372: x_18#167 - 2 hdu_218#276 <= 0
 c373: q_8#5 - b_217#170 + b_218#172 + 300 hdu_218#276 <= 299.5
 c374: - q_9#3 + b_216#166 - b_219#174 <= 2
 c375: x_19#163 - 2 hdu_219#277 <= 0
 c376: q_9#3 - b_216#166 + b_219#174 + 300 hdu_219#277 <= 298
 c377: - b_301#177 - q_0#214 <= 0
 c378: x_00#175 - 2 hdu_300#278 <= 0
 c379: b_301#177 + q_0#214 + 300 hdu_300#278 <= 300
 c380: - b_305#184 + b_307#191 - q_1#216 <= 0
 c381: x_01#182 - 2 hdu_301#279 <= 0
 c382: b_305#184 - b_307#191 + q_1#216 + 300 hdu_301#279 <= 300
 c383: - b_306#187 + b_307#191 - q_2#218 <= 0
 c384: x_02#185 - 2 hdu_302#280 <= 0
 c385: b_306#187 - b_307#191 + q_2#218 + 300 hdu_302#280 <= 300
 c386: - q_3#4 + ap_30#48 - b_307#191 <= 0
 c387: x_03#46 - 2 hdu_303#281 <= 0
 c388: q_3#4 - ap_30#48 + b_307#191 + 300 hdu_303#281 <= 300
 c389: b_304#180 - b_307#191 - q_4#221 <= 0
 c390: x_04#178 - 2 hdu_304#282 <= 0
 c391: - b_304#180 + b_307#191 + q_4#221 + 300 hdu_304#282 <= 300
 c392: - q_5#0 - b_307#191 + b_308#193 <= 0
 c393: x_05#189 - 2 hdu_305#283 <= 0
 c394: q_5#0 + b_307#191 - b_308#193 + 300 hdu_305#283 <= 300
 c395: - q_6#1 + ap_30#48 - b_308#193 <= 0.325000000000023
 c396: x_06#45 - 2 hdu_306#284 <= 0
 c397: q_6#1 - ap_30#48 + b_308#193 + 300 hdu_306#284 <= 299.675
 c398: - q_7#2 + b_305#184 - b_308#193 <= 0.425000000000068
 c399: x_07#181 - 2 hdu_307#285 <= 0
 c400: q_7#2 - b_305#184 + b_308#193 + 300 hdu_307#285 <= 299.575
 c401: - q_8#5 + b_307#191 - b_308#193 <= 0.500000000000068
 c402: x_08#188 - 2 hdu_308#286 <= 0
 c403: q_8#5 - b_307#191 + b_308#193 + 300 hdu_308#286 <= 299.5
 c404: - q_9#3 - an_30#51 + b_306#187 <= 0.375
 c405: x_09#49 - 2 hdu_309#287 <= 0
 c406: q_9#3 + an_30#51 - b_306#187 + 300 hdu_309#287 <= 299.625
 c407: - an_31#57 + b_319#213 - q_0#214 <= 0
 c408: x_10#55 - 2 hdu_310#288 <= 0
 c409: an_31#57 - b_319#213 + q_0#214 + 300 hdu_310#288 <= 300
 c410: - b_315#201 + b_317#209 - q_1#216 <= 0
 c411: x_11#199 - 2 hdu_311#289 <= 0
 c412: b_315#201 - b_317#209 + q_1#216 + 300 hdu_311#289 <= 300
 c413: - b_316#205 + b_317#209 - q_2#218 <= 0
 c414: x_12#203 - 2 hdu_312#290 <= 0
 c415: b_316#205 - b_317#209 + q_2#218 + 300 hdu_312#290 <= 300
 c416: - q_3#4 + b_313#197 - b_317#209 <= 0
 c417: x_13#195 - 2 hdu_313#291 <= 0
 c418: q_3#4 - b_313#197 + b_317#209 + 300 hdu_313#291 <= 300
 c419: ap_31#54 - b_317#209 - q_4#221 <= 0
 c420: x_14#52 - 2 hdu_314#292 <= 0
 c421: - ap_31#54 + b_317#209 + q_4#221 + 300 hdu_314#292 <= 300
 c422: - q_5#0 - b_317#209 + b_318#211 <= 0
 c423: x_15#207 - 2 hdu_315#293 <= 0
 c424: q_5#0 + b_317#209 - b_318#211 + 300 hdu_315#293 <= 300
 c425: - q_6#1 + b_313#197 - b_318#211 <= 0
 c426: x_16#194 - 2 hdu_316#294 <= 0
 c427: q_6#1 - b_313#197 + b_318#211 + 300 hdu_316#294 <= 300
 c428: - q_7#2 + b_315#201 - b_318#211 <= 0.425000000000011
 c429: x_17#198 - 2 hdu_317#295 <= 0
 c430: q_7#2 - b_315#201 + b_318#211 + 300 hdu_317#295 <= 299.575
 c431: - q_8#5 + b_317#209 - b_318#211 <= 0.5
 c432: x_18#206 - 2 hdu_318#296 <= 0
 c433: q_8#5 - b_317#209 + b_318#211 + 300 hdu_318#296 <= 299.5
 c434: - q_9#3 + b_316#205 - b_319#213 <= 2
 c435: x_19#202 - 2 hdu_319#297 <= 0
 c436: q_9#3 - b_316#205 + b_319#213 + 300 hdu_319#297 <= 298
 c437: 3.32500000000002 x_06#6 + 3 x_03#7 - ap_00#9 + 3.375 x_09#10 + an_00#12
       + x_14#13 - ap_01#15 + x_10#16 + an_01#18 + x_00#58 + x_04#61
       + 2.42500000000007 x_07#64 + 2 x_01#65 + x_02#68
       + 1.50000000000007 x_08#71 + 2 x_05#72 + 3 x_16#77 + 3 x_13#78
       + 2.42500000000001 x_17#81 + 2 x_11#82 + 5 x_19#85 + x_12#86
       + 1.5 x_18#89 + 2 x_15#90 + z#298 <= 0
 c438: 3.32500000000002 x_06#19 + 3 x_03#20 - ap_10#22 + 3.375 x_09#23
       + an_10#25 + x_14#26 - ap_11#28 + x_10#29 + an_11#31 + x_00#97
       + x_04#100 + 2.42500000000007 x_07#103 + 2 x_01#104 + x_02#107
       + 1.50000000000007 x_08#110 + 2 x_05#111 + 3 x_16#116 + 3 x_13#117
       + 2.42500000000001 x_17#120 + 2 x_11#121 + 5 x_19#124 + x_12#125
       + 1.5 x_18#128 + 2 x_15#129 + z#298 <= 0
 c439: 3.32500000000002 x_06#32 + 3 x_03#33 - ap_20#35 + 3.375 x_09#36
       + an_20#38 + x_14#39 - ap_21#41 + x_10#42 + an_21#44 + x_00#136
       + x_04#139 + 2.42500000000007 x_07#142 + 2 x_01#143 + x_02#146
       + 1.50000000000007 x_08#149 + 2 x_05#150 + 3 x_16#155 + 3 x_13#156
       + 2.42500000000001 x_17#159 + 2 x_11#160 + 5 x_19#163 + x_12#164
       + 1.5 x_18#167 + 2 x_15#168 + z#298 <= 0
 c440: 3.32500000000002 x_06#45 + 3 x_03#46 - ap_30#48 + 3.375 x_09#49
       + an_30#51 + x_14#52 - ap_31#54 + x_10#55 + an_31#57 + x_00#175
       + x_04#178 + 2.42500000000007 x_07#181 + 2 x_01#182 + x_02#185
       + 1.50000000000007 x_08#188 + 2 x_05#189 + 3 x_16#194 + 3 x_13#195
       + 2.42500000000001 x_17#198 + 2 x_11#199 + 5 x_19#202 + x_12#203
       + 1.5 x_18#206 + 2 x_15#207 + z#298 <= 0
Bounds
      q_5#0 = 0
 0 <= q_6#1 <= 1
      q_7#2 = 0
      q_9#3 = 0
 0 <= q_3#4 <= 1
      q_8#5 = 0
 0 <= x_06#6 <= 1
 0 <= x_03#7 <= 1
 0 <= hap_1_00#8 <= 1
 0 <= x_09#10 <= 1
 0 <= han_2_00#11 <= 1
 0 <= x_14#13 <= 1
 0 <= hap_1_01#14 <= 1
 0 <= x_10#16 <= 1
 0 <= han_2_01#17 <= 1
 0 <= x_06#19 <= 1
 0 <= x_03#20 <= 1
 0 <= hap_1_10#21 <= 1
 0 <= x_09#23 <= 1
 0 <= han_2_10#24 <= 1
 0 <= x_14#26 <= 1
 0 <= hap_1_11#27 <= 1
 0 <= x_10#29 <= 1
 0 <= han_2_11#30 <= 1
 0 <= x_06#32 <= 1
 0 <= x_03#33 <= 1
 0 <= hap_1_20#34 <= 1
 0 <= x_09#36 <= 1
 0 <= han_2_20#37 <= 1
 0 <= x_14#39 <= 1
 0 <= hap_1_21#40 <= 1
 0 <= x_10#42 <= 1
 0 <= han_2_21#43 <= 1
 0 <= x_06#45 <= 1
 0 <= x_03#46 <= 1
 0 <= hap_1_30#47 <= 1
 0 <= x_09#49 <= 1
 0 <= han_2_30#50 <= 1
 0 <= x_14#52 <= 1
 0 <= hap_1_31#53 <= 1
 0 <= x_10#55 <= 1
 0 <= han_2_31#56 <= 1
 0 <= x_00#58 <= 1
 0 <= hb_001#59 <= 1
 0 <= x_04#61 <= 1
 0 <= hb_004#62 <= 1
 0 <= x_07#64 <= 1
 0 <= x_01#65 <= 1
 0 <= hb_005#66 <= 1
 0 <= x_02#68 <= 1
 0 <= hb_006#69 <= 1
 0 <= x_08#71 <= 1
 0 <= x_05#72 <= 1
 0 <= hb_007#73 <= 1
 0 <= hb_008#75 <= 1
 0 <= x_16#77 <= 1
 0 <= x_13#78 <= 1
 0 <= hb_013#79 <= 1
 0 <= x_17#81 <= 1
 0 <= x_11#82 <= 1
 0 <= hb_015#83 <= 1
 0 <= x_19#85 <= 1
 0 <= x_12#86 <= 1
 0 <= hb_016#87 <= 1
 0 <= x_18#89 <= 1
 0 <= x_15#90 <= 1
 0 <= hb_017#91 <= 1
 0 <= hb_018#93 <= 1
 0 <= hb_019#95 <= 1
 0 <= x_00#97 <= 1
 0 <= hb_101#98 <= 1
 0 <= x_04#100 <= 1
 0 <= hb_104#101 <= 1
 0 <= x_07#103 <= 1
 0 <= x_01#104 <= 1
 0 <= hb_105#105 <= 1
 0 <= x_02#107 <= 1
 0 <= hb_106#108 <= 1
 0 <= x_08#110 <= 1
 0 <= x_05#111 <= 1
 0 <= hb_107#112 <= 1
 0 <= hb_108#114 <= 1
 0 <= x_16#116 <= 1
 0 <= x_13#117 <= 1
 0 <= hb_113#118 <= 1
 0 <= x_17#120 <= 1
 0 <= x_11#121 <= 1
 0 <= hb_115#122 <= 1
 0 <= x_19#124 <= 1
 0 <= x_12#125 <= 1
 0 <= hb_116#126 <= 1
 0 <= x_18#128 <= 1
 0 <= x_15#129 <= 1
 0 <= hb_117#130 <= 1
 0 <= hb_118#132 <= 1
 0 <= hb_119#134 <= 1
 0 <= x_00#136 <= 1
 0 <= hb_201#137 <= 1
 0 <= x_04#139 <= 1
 0 <= hb_204#140 <= 1
 0 <= x_07#142 <= 1
 0 <= x_01#143 <= 1
 0 <= hb_205#144 <= 1
 0 <= x_02#146 <= 1
 0 <= hb_206#147 <= 1
 0 <= x_08#149 <= 1
 0 <= x_05#150 <= 1
 0 <= hb_207#151 <= 1
 0 <= hb_208#153 <= 1
 0 <= x_16#155 <= 1
 0 <= x_13#156 <= 1
 0 <= hb_213#157 <= 1
 0 <= x_17#159 <= 1
 0 <= x_11#160 <= 1
 0 <= hb_215#161 <= 1
 0 <= x_19#163 <= 1
 0 <= x_12#164 <= 1
 0 <= hb_216#165 <= 1
 0 <= x_18#167 <= 1
 0 <= x_15#168 <= 1
 0 <= hb_217#169 <= 1
 0 <= hb_218#171 <= 1
 0 <= hb_219#173 <= 1
 0 <= x_00#175 <= 1
 0 <= hb_301#176 <= 1
 0 <= x_04#178 <= 1
 0 <= hb_304#179 <= 1
 0 <= x_07#181 <= 1
 0 <= x_01#182 <= 1
 0 <= hb_305#183 <= 1
 0 <= x_02#185 <= 1
 0 <= hb_306#186 <= 1
 0 <= x_08#188 <= 1
 0 <= x_05#189 <= 1
 0 <= hb_307#190 <= 1
 0 <= hb_308#192 <= 1
 0 <= x_16#194 <= 1
 0 <= x_13#195 <= 1
 0 <= hb_313#196 <= 1
 0 <= x_17#198 <= 1
 0 <= x_11#199 <= 1
 0 <= hb_315#200 <= 1
 0 <= x_19#202 <= 1
 0 <= x_12#203 <= 1
 0 <= hb_316#204 <= 1
 0 <= x_18#206 <= 1
 0 <= x_15#207 <= 1
 0 <= hb_317#208 <= 1
 0 <= hb_318#210 <= 1
 0 <= hb_319#212 <= 1
      q_0#214 = 0
 0 <= hdu_000#215 <= 1
      q_1#216 = 0
 0 <= hdu_001#217 <= 1
 0 <= q_2#218 <= 2
 0 <= hdu_002#219 <= 1
 0 <= hdu_003#220 <= 1
 0 <= q_4#221 <= 1
 0 <= hdu_004#222 <= 1
 0 <= hdu_005#223 <= 1
 0 <= hdu_006#224 <= 1
 0 <= hdu_007#225 <= 1
 0 <= hdu_008#226 <= 1
 0 <= hdu_009#227 <= 1
 0 <= hdu_010#228 <= 1
 0 <= hdu_011#229 <= 1
 0 <= hdu_012#230 <= 1
 0 <= hdu_013#231 <= 1
 0 <= hdu_014#232 <= 1
 0 <= hdu_015#233 <= 1
 0 <= hdu_016#234 <= 1
 0 <= hdu_017#235 <= 1
 0 <= hdu_018#236 <= 1
 0 <= hdu_019#237 <= 1
 0 <= hdu_100#238 <= 1
 0 <= hdu_101#239 <= 1
 0 <= hdu_102#240 <= 1
 0 <= hdu_103#241 <= 1
 0 <= hdu_104#242 <= 1
 0 <= hdu_105#243 <= 1
 0 <= hdu_106#244 <= 1
 0 <= hdu_107#245 <= 1
 0 <= hdu_108#246 <= 1
 0 <= hdu_109#247 <= 1
 0 <= hdu_110#248 <= 1
 0 <= hdu_111#249 <= 1
 0 <= hdu_112#250 <= 1
 0 <= hdu_113#251 <= 1
 0 <= hdu_114#252 <= 1
 0 <= hdu_115#253 <= 1
 0 <= hdu_116#254 <= 1
 0 <= hdu_117#255 <= 1
 0 <= hdu_118#256 <= 1
 0 <= hdu_119#257 <= 1
 0 <= hdu_200#258 <= 1
 0 <= hdu_201#259 <= 1
 0 <= hdu_202#260 <= 1
 0 <= hdu_203#261 <= 1
 0 <= hdu_204#262 <= 1
 0 <= hdu_205#263 <= 1
 0 <= hdu_206#264 <= 1
 0 <= hdu_207#265 <= 1
 0 <= hdu_208#266 <= 1
 0 <= hdu_209#267 <= 1
 0 <= hdu_210#268 <= 1
 0 <= hdu_211#269 <= 1
 0 <= hdu_212#270 <= 1
 0 <= hdu_213#271 <= 1
 0 <= hdu_214#272 <= 1
 0 <= hdu_215#273 <= 1
 0 <= hdu_216#274 <= 1
 0 <= hdu_217#275 <= 1
 0 <= hdu_218#276 <= 1
 0 <= hdu_219#277 <= 1
 0 <= hdu_300#278 <= 1
 0 <= hdu_301#279 <= 1
 0 <= hdu_302#280 <= 1
 0 <= hdu_303#281 <= 1
 0 <= hdu_304#282 <= 1
 0 <= hdu_305#283 <= 1
 0 <= hdu_306#284 <= 1
 0 <= hdu_307#285 <= 1
 0 <= hdu_308#286 <= 1
 0 <= hdu_309#287 <= 1
 0 <= hdu_310#288 <= 1
 0 <= hdu_311#289 <= 1
 0 <= hdu_312#290 <= 1
 0 <= hdu_313#291 <= 1
 0 <= hdu_314#292 <= 1
 0 <= hdu_315#293 <= 1
 0 <= hdu_316#294 <= 1
 0 <= hdu_317#295 <= 1
 0 <= hdu_318#296 <= 1
 0 <= hdu_319#297 <= 1
      z#298 Free
Binaries
 hap_1_00#8  han_2_00#11  hap_1_01#14  han_2_01#17  hap_1_10#21  han_2_10#24 
 hap_1_11#27  han_2_11#30  hap_1_20#34  han_2_20#37  hap_1_21#40  han_2_21#43 
 hap_1_30#47  han_2_30#50  hap_1_31#53  han_2_31#56  hb_001#59  hb_004#62 
 hb_005#66  hb_006#69  hb_007#73  hb_008#75  hb_013#79  hb_015#83  hb_016#87 
 hb_017#91  hb_018#93  hb_019#95  hb_101#98  hb_104#101  hb_105#105 
 hb_106#108  hb_107#112  hb_108#114  hb_113#118  hb_115#122  hb_116#126 
 hb_117#130  hb_118#132  hb_119#134  hb_201#137  hb_204#140  hb_205#144 
 hb_206#147  hb_207#151  hb_208#153  hb_213#157  hb_215#161  hb_216#165 
 hb_217#169  hb_218#171  hb_219#173  hb_301#176  hb_304#179  hb_305#183 
 hb_306#186  hb_307#190  hb_308#192  hb_313#196  hb_315#200  hb_316#204 
 hb_317#208  hb_318#210  hb_319#212  hdu_000#215  hdu_001#217  hdu_002#219 
 hdu_003#220  hdu_004#222  hdu_005#223  hdu_006#224  hdu_007#225  hdu_008#226 
 hdu_009#227  hdu_010#228  hdu_011#229  hdu_012#230  hdu_013#231  hdu_014#232 
 hdu_015#233  hdu_016#234  hdu_017#235  hdu_018#236  hdu_019#237  hdu_100#238 
 hdu_101#239  hdu_102#240  hdu_103#241  hdu_104#242  hdu_105#243  hdu_106#244 
 hdu_107#245  hdu_108#246  hdu_109#247  hdu_110#248  hdu_111#249  hdu_112#250 
 hdu_113#251  hdu_114#252  hdu_115#253  hdu_116#254  hdu_117#255  hdu_118#256 
 hdu_119#257  hdu_200#258  hdu_201#259  hdu_202#260  hdu_203#261  hdu_204#262 
 hdu_205#263  hdu_206#264  hdu_207#265  hdu_208#266  hdu_209#267  hdu_210#268 
 hdu_211#269  hdu_212#270  hdu_213#271  hdu_214#272  hdu_215#273  hdu_216#274 
 hdu_217#275  hdu_218#276  hdu_219#277  hdu_300#278  hdu_301#279  hdu_302#280 
 hdu_303#281  hdu_304#282  hdu_305#283  hdu_306#284  hdu_307#285  hdu_308#286 
 hdu_309#287  hdu_310#288  hdu_311#289  hdu_312#290  hdu_313#291  hdu_314#292 
 hdu_315#293  hdu_316#294  hdu_317#295  hdu_318#296  hdu_319#297 
End
